c Generated map
c Size: 8 * 8, weights in range: 1 to 10, walls: True, with ratio 0.1
c dim 8 of 10
c
p sp 64 92
c graph contains 64 nodes and 92 arcs
c
a 1 9 3
a 9 1 3
a 1 2 2
a 2 1 2
a 2 10 3
a 10 2 3
a 2 3 8
a 3 2 8
a 3 11 6
a 11 3 6
a 3 4 8
a 4 3 8
a 4 12 7
a 12 4 7
a 4 5 8
a 5 4 8
a 5 13 1
a 13 5 1
a 7 15 7
a 15 7 7
a 7 8 3
a 8 7 3
a 8 16 5
a 16 8 5
a 9 17 8
a 17 9 8
a 9 10 4
a 10 9 4
a 10 11 8
a 11 10 8
a 11 19 10
a 19 11 10
a 11 12 8
a 12 11 8
a 12 20 4
a 20 12 4
a 12 13 1
a 13 12 1
a 13 21 5
a 21 13 5
a 13 14 1
a 14 13 1
a 14 22 3
a 22 14 3
a 14 15 6
a 15 14 6
a 15 23 9
a 23 15 9
a 15 16 4
a 16 15 4
a 16 24 9
a 24 16 9
a 17 25 6
a 25 17 6
a 19 27 2
a 27 19 2
a 19 20 8
a 20 19 8
a 20 28 8
a 28 20 8
a 20 21 1
a 21 20 1
a 21 29 9
a 29 21 9
a 21 22 10
a 22 21 10
a 22 30 8
a 30 22 8
a 22 23 1
a 23 22 1
a 23 31 7
a 31 23 7
a 23 24 6
a 24 23 6
a 24 32 3
a 32 24 3
a 25 33 10
a 33 25 10
a 25 26 2
a 26 25 2
a 26 34 6
a 34 26 6
a 26 27 8
a 27 26 8
a 27 35 3
a 35 27 3
a 27 28 6
a 28 27 6
a 28 36 7
a 36 28 7
a 28 29 6
a 29 28 6
a 29 37 3
a 37 29 3
a 29 30 9
a 30 29 9
a 30 38 6
a 38 30 6
a 30 31 8
a 31 30 8
a 31 39 10
a 39 31 10
a 31 32 10
a 32 31 10
a 32 40 3
a 40 32 3
a 33 41 6
a 41 33 6
a 33 34 7
a 34 33 7
a 34 42 4
a 42 34 4
a 34 35 4
a 35 34 4
a 35 36 10
a 36 35 10
a 36 44 7
a 44 36 7
a 36 37 6
a 37 36 6
a 37 38 6
a 38 37 6
a 38 46 5
a 46 38 5
a 38 39 3
a 39 38 3
a 39 47 4
a 47 39 4
a 39 40 10
a 40 39 10
a 40 48 9
a 48 40 9
a 41 49 1
a 49 41 1
a 41 42 9
a 42 41 9
a 42 50 2
a 50 42 2
a 44 52 5
a 52 44 5
a 46 54 2
a 54 46 2
a 46 47 5
a 47 46 5
a 47 55 5
a 55 47 5
a 47 48 3
a 48 47 3
a 49 50 10
a 50 49 10
a 50 58 1
a 58 50 1
a 50 51 10
a 51 50 10
a 51 59 7
a 59 51 7
a 51 52 9
a 52 51 9
a 52 60 2
a 60 52 2
a 52 53 3
a 53 52 3
a 53 61 6
a 61 53 6
a 53 54 1
a 54 53 1
a 54 62 5
a 62 54 5
a 54 55 4
a 55 54 4
a 55 63 10
a 63 55 10
a 58 59 1
a 59 58 1
a 59 60 2
a 60 59 2
a 60 61 2
a 61 60 2
a 61 62 1
a 62 61 1
a 62 63 2
a 63 62 2
a 63 64 6
a 64 63 6
